(set-info :source |printed by MathSAT|)
(declare-fun level () Bool)
(declare-fun param_treset () Bool)
(declare-fun call__SWITCH1_.level () Bool)
(declare-fun call__SWITCH_.flby () Bool)
(declare-fun param_set () Bool)
(declare-fun call__SWITCH_.ite () Bool)
(declare-fun _OK_ () Bool)
(declare-fun call__SWITCH1_.ite2 () Bool)
(declare-fun param_initial () Bool)
(declare-fun call__SWITCH_.level () Bool)
(declare-fun call__SWITCH1_.flby () Bool)
(declare-fun level1 () Bool)
(declare-fun ite () Bool)
(declare-fun call__SWITCH1_.ite () Bool)
(define-fun .def_165 () Bool (= call__SWITCH1_.flby call__SWITCH1_.level))
(define-fun .def_163 () Bool (= call__SWITCH_.flby call__SWITCH_.level))
(define-fun .def_159 () Bool (not param_set))
(define-fun .def_160 () Bool (or call__SWITCH1_.ite2 .def_159))
(define-fun .def_157 () Bool (= call__SWITCH1_.ite call__SWITCH1_.ite2))
(define-fun .def_158 () Bool (or param_set .def_157))
(define-fun .def_161 () Bool (and .def_158 .def_160))
(define-fun .def_142 () Bool (and param_treset param_set))
(define-fun .def_153 () Bool (not .def_142))
(define-fun .def_154 () Bool (or ite .def_153))
(define-fun .def_151 () Bool (= level1 call__SWITCH1_.level))
(define-fun .def_148 () Bool (= ite _OK_))
(define-fun .def_145 () Bool (= level call__SWITCH_.level))
(define-fun .def_138 () Bool (= level level1))
(define-fun .def_140 () Bool (= .def_138 ite))
(define-fun .def_143 () Bool (or .def_140 .def_142))
(define-fun .def_146 () Bool (and .def_143 .def_145))
(define-fun .def_149 () Bool (and .def_146 .def_148))
(define-fun .def_152 () Bool (and .def_149 .def_151))
(define-fun .def_155 () Bool (and .def_152 .def_154))
(define-fun .def_162 () Bool (and .def_155 .def_161))
(define-fun .def_164 () Bool (and .def_162 .def_163))
(define-fun .def_166 () Bool (and .def_164 .def_165))
(define-fun .def_134 () Bool (= param_initial call__SWITCH1_.flby))
(define-fun .def_131 () Bool (= param_initial call__SWITCH_.flby))
(define-fun .def_126 () Bool (not call__SWITCH_.ite))
(define-fun .def_123 () Bool (not param_treset))
(define-fun .def_127 () Bool (or .def_123 .def_126))
(define-fun .def_121 () Bool (not call__SWITCH1_.ite))
(define-fun .def_124 () Bool (or .def_121 .def_123))
(define-fun .def_128 () Bool (and .def_124 .def_127))
(define-fun .def_132 () Bool (and .def_128 .def_131))
(define-fun .def_135 () Bool (and .def_132 .def_134))
(define-fun .def_167 () Bool (and .def_135 .def_166))
(assert .def_167)
